\* The Course Selection Problem *\
Maximize
OBJ: course:_"Computability,_Complexity_and_Algorithms"_6505
 + course:_"Computational_Data_Analysis:_Learning,_Mining,_and_Computation"_6740
 + course:_3D_Reconstruction_7499
 + course:_AI_Storytelling_in_Virtual_Worlds_7634
 + course:_Advanced_Internet_Computing_Systems_and_Applications_6675
 + course:_Advanced_Operating_Systems_6210
 + course:_Advanced_Topics_in_Microarchitecture_7290
 + course:_Applied_Cryptography_6260 + course:_Approximation_Algorithms_7520
 + course:_Artificial_Intelligence_6601
 + course:_Artificial_Intelligence_for_Robotics_8803_O01
 + course:_Autonomous_Multi_Robot_Systems_7631
 + course:_Autonomous_Robotics_7630 + course:_Case_Based_Reasoning_7620
 + course:_Compiler_Design_6241 + course:_Computational_Complexity_Theory_6520
 + course:_Computational_Journalism_6465
 + course:_Computational_Perception_7636
 + course:_Computational_Photography_6475
 + course:_Computational_Science_and_Engineering_Algorithms_6140
 + course:_Computer_Networks_6250 + course:_Computer_Vision_7495
 + course:_Data_and_Visual_Analytics_6242
 + course:_Database_System_Implementation_6422
 + course:_Database_Systems_Concepts_and_Design_6400
 + course:_Design_and_Analysis_of_Algorithms_6550
 + course:_Distributed_Computing_7210
 + course:_Educational_Technology:_Conceptual_Foundations_6460
 + course:_Game_AI_7632 + course:_Graph_Algorithms_7510
 + course:_High_Performance_Computer_Architecture_6290
 + course:_High_Performance_Parallel_Computing:_Tools_and_Applications_6230
 + course:_Human_Robot_Interaction_7633
 + course:_Internetworking_Architectures_and_Protocols_7260
 + course:_Intro_to_Health_Informatics_6440
 + course:_Intro_to_High_Performance_Computing_6220
 + course:_Introduction_to_Cognitive_Science_6795
 + course:_Introduction_to_Enterprise_Computing_6365
 + course:_Introduction_to_Information_Security_6035
 + course:_Introduction_to_Operating_Systems_8803_002
 + course:_Knowledge_Based_Artificial_Intelligence:_Cognitive_Systems_7637
 + course:_Machine_Learning_7641 + course:_Machine_Learning_Theory_7545
 + course:_Machine_Learning_for_Trading_7646
 + course:_Modeling_and_Design_7610
 + course:_Multicore_Computing:_Concurrency_and_Parallelism_on_the_Desktop_6221
 + course:_Natural_Language_7650 + course:_Network_Security_6262
 + course:_Networked_Applications_and_Services_7270
 + course:_Parallel_and_Distributed_Simulation_6236
 + course:_Pattern_Recognition_7616 + course:_Randomized_Algorithms_7530
 + course:_Reliability_and_Security_in_Computer_Architecture_7292
 + course:_Robot_Intelligence:_Planning_7649
 + course:_Secure_Computer_Systems_6238
 + course:_Software_Analysis_and_Testing_6340
 + course:_Software_Architecture_and_Design_6310
 + course:_Software_Development_Process_6300
 + course:_Special_Topics:_Advanced_Game_AI_8803_AGA
 + course:_Special_Topics:_Big_Data_for_Health_Informatics_8803_BDHI
 + course:_Special_Topics:_Computational_Creativity_8803_CC
 + course:_Special_Topics:_Computational_Social_Science_8803_CSS
 + course:_Special_Topics:_Foundations_of_Programming_Languages_8803_FPL
 + course:_Special_Topics:_Hot_Topics_in_Parallel_Computing_8803_HTPC
 + course:_Special_Topics:_Multiview_Geometry_in_Computer_Vision_8803_MGCV
 + course:_Special_Topics:_Parallel_Numerical_Algorithms_8803_PNA
 + course:_Special_Topics:_Probabilistic_Graph_Models_8803_PGM
 + course:_Special_Topics:_Reinforcement_Learning_8803_RL
 + course:_Spectral_Algorithms_7540 + course:_Theory_of_Cryptography_7560
 + course:_Web_Search_and_Text_Mining_6240
Subject To
2_foundational_courses_selected:
 course:_"Computability,_Complexity_and_Algorithms"_6505
 + course:_Advanced_Operating_Systems_6210 + course:_Computer_Networks_6250
 + course:_High_Performance_Computer_Architecture_6290
 + course:_Intro_to_High_Performance_Computing_6220
 + course:_Introduction_to_Operating_Systems_8803_002
 + course:_Knowledge_Based_Artificial_Intelligence:_Cognitive_Systems_7637
 + course:_Machine_Learning_7641
 + course:_Software_Architecture_and_Design_6310
 + course:_Software_Development_Process_6300 >= 0
must_take_1_courses_in_grouping0_in_track_interactive_intelligence:
 course:_"Computability,_Complexity_and_Algorithms"_6505
 + course:_Software_Development_Process_6300 - track:_interactive_intelligence
 >= 0
must_take_1_courses_in_grouping0_in_track_machine_learning:
 course:_"Computability,_Complexity_and_Algorithms"_6505
 + course:_Approximation_Algorithms_7520
 + course:_Computational_Complexity_Theory_6520
 + course:_Computational_Science_and_Engineering_Algorithms_6140
 + course:_Design_and_Analysis_of_Algorithms_6550
 + course:_Graph_Algorithms_7510 + course:_Randomized_Algorithms_7530
 - track:_machine_learning >= 0
must_take_1_courses_in_grouping0_in_track_perception_robotics:
 course:_"Computability,_Complexity_and_Algorithms"_6505
 + course:_Approximation_Algorithms_7520
 + course:_Computational_Complexity_Theory_6520
 + course:_Computational_Science_and_Engineering_Algorithms_6140
 + course:_Design_and_Analysis_of_Algorithms_6550
 + course:_Randomized_Algorithms_7530 - track:_perception_robotics >= 0
must_take_1_courses_in_grouping0_in_track_programming_systems:
 course:_"Computability,_Complexity_and_Algorithms"_6505
 - track:_programming_systems >= 0
must_take_1_courses_in_grouping1_in_track_machine_learning:
 course:_"Computational_Data_Analysis:_Learning,_Mining,_and_Computation"_6740
 + course:_Machine_Learning_7641 - track:_machine_learning >= 0
must_take_1_courses_in_grouping1_in_track_perception_robotics:
 course:_Artificial_Intelligence_6601 + course:_Machine_Learning_7641
 - track:_perception_robotics >= 0
must_take_1_courses_in_grouping2_in_track_perception_robotics:
 course:_3D_Reconstruction_7499 + course:_Computational_Perception_7636
 + course:_Computational_Photography_6475 + course:_Computer_Vision_7495
 + course:_Special_Topics:_Multiview_Geometry_in_Computer_Vision_8803_MGCV
 - track:_perception_robotics >= 0
must_take_1_courses_in_grouping3_in_track_perception_robotics:
 course:_Artificial_Intelligence_for_Robotics_8803_O01
 + course:_Autonomous_Multi_Robot_Systems_7631
 + course:_Autonomous_Robotics_7630 + course:_Human_Robot_Interaction_7633
 + course:_Robot_Intelligence:_Planning_7649 - track:_perception_robotics >= 0
must_take_2_courses_in_grouping0_in_track_high_performance_computing:
 course:_Computational_Science_and_Engineering_Algorithms_6140
 + course:_Intro_to_High_Performance_Computing_6220
 - 2 track:_high_performance_computing >= 0
must_take_2_courses_in_grouping1_in_track_interactive_intelligence:
 course:_Artificial_Intelligence_6601 + course:_Case_Based_Reasoning_7620
 + course:_Knowledge_Based_Artificial_Intelligence:_Cognitive_Systems_7637
 + course:_Machine_Learning_7641 - 2 track:_interactive_intelligence >= 0
must_take_2_courses_in_grouping1_in_track_programming_systems:
 course:_Advanced_Operating_Systems_6210 + course:_Compiler_Design_6241
 + course:_Computer_Networks_6250
 + course:_Database_Systems_Concepts_and_Design_6400
 + course:_High_Performance_Computer_Architecture_6290
 + course:_Software_Development_Process_6300 - 2 track:_programming_systems
 >= 0
must_take_2_courses_in_grouping2_in_track_interactive_intelligence:
 course:_AI_Storytelling_in_Virtual_Worlds_7634
 + course:_Computational_Journalism_6465
 + course:_Educational_Technology:_Conceptual_Foundations_6460
 + course:_Game_AI_7632 + course:_Intro_to_Health_Informatics_6440
 + course:_Introduction_to_Cognitive_Science_6795
 + course:_Modeling_and_Design_7610 + course:_Natural_Language_7650
 + course:_Special_Topics:_Advanced_Game_AI_8803_AGA
 + course:_Special_Topics:_Computational_Creativity_8803_CC
 + course:_Special_Topics:_Computational_Social_Science_8803_CSS
 - 2 track:_interactive_intelligence >= 0
must_take_2_courses_in_grouping2_in_track_machine_learning:
 course:_Data_and_Visual_Analytics_6242 + course:_Machine_Learning_Theory_7545
 + course:_Machine_Learning_for_Trading_7646 + course:_Natural_Language_7650
 + course:_Pattern_Recognition_7616
 + course:_Special_Topics:_Probabilistic_Graph_Models_8803_PGM
 + course:_Spectral_Algorithms_7540 + course:_Web_Search_and_Text_Mining_6240
 - 2 track:_machine_learning >= 0
must_take_3_courses_in_grouping1_in_track_high_performance_computing:
 course:_Compiler_Design_6241
 + course:_High_Performance_Computer_Architecture_6290
 + course:_High_Performance_Parallel_Computing:_Tools_and_Applications_6230
 + course:_Multicore_Computing:_Concurrency_and_Parallelism_on_the_Desktop_6221
 + course:_Parallel_and_Distributed_Simulation_6236
 + course:_Special_Topics:_Hot_Topics_in_Parallel_Computing_8803_HTPC
 + course:_Special_Topics:_Parallel_Numerical_Algorithms_8803_PNA
 - 3 track:_high_performance_computing >= 0
must_take_3_courses_in_grouping2_in_track_programming_systems:
 course:_Advanced_Internet_Computing_Systems_and_Applications_6675
 + course:_Advanced_Topics_in_Microarchitecture_7290
 + course:_Applied_Cryptography_6260
 + course:_Database_System_Implementation_6422
 + course:_Design_and_Analysis_of_Algorithms_6550
 + course:_Distributed_Computing_7210
 + course:_Internetworking_Architectures_and_Protocols_7260
 + course:_Introduction_to_Enterprise_Computing_6365
 + course:_Introduction_to_Information_Security_6035
 + course:_Network_Security_6262
 + course:_Networked_Applications_and_Services_7270
 + course:_Reliability_and_Security_in_Computer_Architecture_7292
 + course:_Secure_Computer_Systems_6238
 + course:_Software_Analysis_and_Testing_6340
 + course:_Software_Architecture_and_Design_6310
 + course:_Special_Topics:_Foundations_of_Programming_Languages_8803_FPL
 + course:_Theory_of_Cryptography_7560 - 3 track:_programming_systems >= 0
must_take_3_courses_in_grouping4_in_track_perception_robotics:
 course:_3D_Reconstruction_7499
 + course:_Artificial_Intelligence_for_Robotics_8803_O01
 + course:_Autonomous_Multi_Robot_Systems_7631
 + course:_Autonomous_Robotics_7630 + course:_Computational_Perception_7636
 + course:_Computational_Photography_6475 + course:_Computer_Vision_7495
 + course:_Human_Robot_Interaction_7633
 + course:_Robot_Intelligence:_Planning_7649
 + course:_Special_Topics:_Multiview_Geometry_in_Computer_Vision_8803_MGCV
 - 3 track:_perception_robotics >= 0
single_track_selected: track:_high_performance_computing
 + track:_interactive_intelligence + track:_machine_learning
 + track:_perception_robotics + track:_programming_systems = 1
total_credits_=_college_requirement:
 3 course:_"Computability,_Complexity_and_Algorithms"_6505
 + 3 course:_"Computational_Data_Analysis:_Learning,_Mining,_and_Computation"_6740
 + 3 course:_3D_Reconstruction_7499
 + 3 course:_AI_Storytelling_in_Virtual_Worlds_7634
 + 3 course:_Advanced_Internet_Computing_Systems_and_Applications_6675
 + 3 course:_Advanced_Operating_Systems_6210
 + 3 course:_Advanced_Topics_in_Microarchitecture_7290
 + 3 course:_Applied_Cryptography_6260
 + 3 course:_Approximation_Algorithms_7520
 + 3 course:_Artificial_Intelligence_6601
 + 3 course:_Artificial_Intelligence_for_Robotics_8803_O01
 + 3 course:_Autonomous_Multi_Robot_Systems_7631
 + 3 course:_Autonomous_Robotics_7630 + 3 course:_Case_Based_Reasoning_7620
 + 3 course:_Compiler_Design_6241
 + 3 course:_Computational_Complexity_Theory_6520
 + 3 course:_Computational_Journalism_6465
 + 3 course:_Computational_Perception_7636
 + 3 course:_Computational_Photography_6475
 + 3 course:_Computational_Science_and_Engineering_Algorithms_6140
 + 3 course:_Computer_Networks_6250 + 3 course:_Computer_Vision_7495
 + 3 course:_Data_and_Visual_Analytics_6242
 + 3 course:_Database_System_Implementation_6422
 + 3 course:_Database_Systems_Concepts_and_Design_6400
 + 3 course:_Design_and_Analysis_of_Algorithms_6550
 + 3 course:_Distributed_Computing_7210
 + 3 course:_Educational_Technology:_Conceptual_Foundations_6460
 + 3 course:_Game_AI_7632 + 3 course:_Graph_Algorithms_7510
 + 3 course:_High_Performance_Computer_Architecture_6290
 + 3 course:_High_Performance_Parallel_Computing:_Tools_and_Applications_6230
 + 3 course:_Human_Robot_Interaction_7633
 + 3 course:_Internetworking_Architectures_and_Protocols_7260
 + 3 course:_Intro_to_Health_Informatics_6440
 + 3 course:_Intro_to_High_Performance_Computing_6220
 + 3 course:_Introduction_to_Cognitive_Science_6795
 + 3 course:_Introduction_to_Enterprise_Computing_6365
 + 3 course:_Introduction_to_Information_Security_6035
 + 3 course:_Introduction_to_Operating_Systems_8803_002
 + 3 course:_Knowledge_Based_Artificial_Intelligence:_Cognitive_Systems_7637
 + 3 course:_Machine_Learning_7641 + 3 course:_Machine_Learning_Theory_7545
 + 3 course:_Machine_Learning_for_Trading_7646
 + 3 course:_Modeling_and_Design_7610
 + 3 course:_Multicore_Computing:_Concurrency_and_Parallelism_on_the_Desktop_6221
 + 3 course:_Natural_Language_7650 + 3 course:_Network_Security_6262
 + 3 course:_Networked_Applications_and_Services_7270
 + 3 course:_Parallel_and_Distributed_Simulation_6236
 + 3 course:_Pattern_Recognition_7616 + 3 course:_Randomized_Algorithms_7530
 + 3 course:_Reliability_and_Security_in_Computer_Architecture_7292
 + 3 course:_Robot_Intelligence:_Planning_7649
 + 3 course:_Secure_Computer_Systems_6238
 + 3 course:_Software_Analysis_and_Testing_6340
 + 3 course:_Software_Architecture_and_Design_6310
 + 3 course:_Software_Development_Process_6300
 + 3 course:_Special_Topics:_Advanced_Game_AI_8803_AGA
 + 3 course:_Special_Topics:_Big_Data_for_Health_Informatics_8803_BDHI
 + 3 course:_Special_Topics:_Computational_Creativity_8803_CC
 + 3 course:_Special_Topics:_Computational_Social_Science_8803_CSS
 + 3 course:_Special_Topics:_Foundations_of_Programming_Languages_8803_FPL
 + 3 course:_Special_Topics:_Hot_Topics_in_Parallel_Computing_8803_HTPC
 + 3 course:_Special_Topics:_Multiview_Geometry_in_Computer_Vision_8803_MGCV
 + 3 course:_Special_Topics:_Parallel_Numerical_Algorithms_8803_PNA
 + 3 course:_Special_Topics:_Probabilistic_Graph_Models_8803_PGM
 + 3 course:_Special_Topics:_Reinforcement_Learning_8803_RL
 + 3 course:_Spectral_Algorithms_7540 + 3 course:_Theory_of_Cryptography_7560
 + 3 course:_Web_Search_and_Text_Mining_6240 = 30
Binaries
course:_"Computability,_Complexity_and_Algorithms"_6505
course:_"Computational_Data_Analysis:_Learning,_Mining,_and_Computation"_6740
course:_3D_Reconstruction_7499
course:_AI_Storytelling_in_Virtual_Worlds_7634
course:_Advanced_Internet_Computing_Systems_and_Applications_6675
course:_Advanced_Operating_Systems_6210
course:_Advanced_Topics_in_Microarchitecture_7290
course:_Applied_Cryptography_6260
course:_Approximation_Algorithms_7520
course:_Artificial_Intelligence_6601
course:_Artificial_Intelligence_for_Robotics_8803_O01
course:_Autonomous_Multi_Robot_Systems_7631
course:_Autonomous_Robotics_7630
course:_Case_Based_Reasoning_7620
course:_Compiler_Design_6241
course:_Computational_Complexity_Theory_6520
course:_Computational_Journalism_6465
course:_Computational_Perception_7636
course:_Computational_Photography_6475
course:_Computational_Science_and_Engineering_Algorithms_6140
course:_Computer_Networks_6250
course:_Computer_Vision_7495
course:_Data_and_Visual_Analytics_6242
course:_Database_System_Implementation_6422
course:_Database_Systems_Concepts_and_Design_6400
course:_Design_and_Analysis_of_Algorithms_6550
course:_Distributed_Computing_7210
course:_Educational_Technology:_Conceptual_Foundations_6460
course:_Game_AI_7632
course:_Graph_Algorithms_7510
course:_High_Performance_Computer_Architecture_6290
course:_High_Performance_Parallel_Computing:_Tools_and_Applications_6230
course:_Human_Robot_Interaction_7633
course:_Internetworking_Architectures_and_Protocols_7260
course:_Intro_to_Health_Informatics_6440
course:_Intro_to_High_Performance_Computing_6220
course:_Introduction_to_Cognitive_Science_6795
course:_Introduction_to_Enterprise_Computing_6365
course:_Introduction_to_Information_Security_6035
course:_Introduction_to_Operating_Systems_8803_002
course:_Knowledge_Based_Artificial_Intelligence:_Cognitive_Systems_7637
course:_Machine_Learning_7641
course:_Machine_Learning_Theory_7545
course:_Machine_Learning_for_Trading_7646
course:_Modeling_and_Design_7610
course:_Multicore_Computing:_Concurrency_and_Parallelism_on_the_Desktop_6221
course:_Natural_Language_7650
course:_Network_Security_6262
course:_Networked_Applications_and_Services_7270
course:_Parallel_and_Distributed_Simulation_6236
course:_Pattern_Recognition_7616
course:_Randomized_Algorithms_7530
course:_Reliability_and_Security_in_Computer_Architecture_7292
course:_Robot_Intelligence:_Planning_7649
course:_Secure_Computer_Systems_6238
course:_Software_Analysis_and_Testing_6340
course:_Software_Architecture_and_Design_6310
course:_Software_Development_Process_6300
course:_Special_Topics:_Advanced_Game_AI_8803_AGA
course:_Special_Topics:_Big_Data_for_Health_Informatics_8803_BDHI
course:_Special_Topics:_Computational_Creativity_8803_CC
course:_Special_Topics:_Computational_Social_Science_8803_CSS
course:_Special_Topics:_Foundations_of_Programming_Languages_8803_FPL
course:_Special_Topics:_Hot_Topics_in_Parallel_Computing_8803_HTPC
course:_Special_Topics:_Multiview_Geometry_in_Computer_Vision_8803_MGCV
course:_Special_Topics:_Parallel_Numerical_Algorithms_8803_PNA
course:_Special_Topics:_Probabilistic_Graph_Models_8803_PGM
course:_Special_Topics:_Reinforcement_Learning_8803_RL
course:_Spectral_Algorithms_7540
course:_Theory_of_Cryptography_7560
course:_Web_Search_and_Text_Mining_6240
track:_high_performance_computing
track:_interactive_intelligence
track:_machine_learning
track:_perception_robotics
track:_programming_systems
End
